10
0   3346   1982   7990   7472   3407   5973   3099   7005   7829   
3346   0   1435   4263   10162   2757   9407   1817   9126   3884   
1982   1435   0   6573   7650   9788   4091   6350   7650   9357   
7990   4263   6573   0   5413   5818   2522   11642   7895   5654   
7472   10162   7650   5413   0   1015   2129   6161   3897   8627   
3407   2757   9788   5818   1015   0   10119   9308   1975   9687   
5973   9407   4091   2522   2129   10119   0   1278   6850   3131   
3099   1817   6350   11642   6161   9308   1278   0   12044   2442   
7005   9126   7650   7895   3897   1975   6850   12044   0   9925   
7829   3884   9357   5654   8627   9687   3131   2442   9925   0   
